CMD:
./solvers/bin/cadical --plain --no-reduce -t 1600 ./data/cnfs//picorv32-check-p20/picorv32-check-p20.96.cnf

c --- [ banner ] -------------------------------------------------------------
c 
c CaDiCaL SAT Solver
c Copyright (c) 2016-2024
c A. Biere, M. Fleury, N. Froleyks, K. Fazekas, F. Pollitt, T. Faller
c JKU Linz, University of Freiburg, TU Wien
c 
c Version 2.1.3 5296d3d2a9bf48c154ab2acb5e44625776d821bf
c g++ (Gentoo 12.3.1_p20230526 p2) 12.3.1 20230526 -Wall -Wextra -O3 -DNDEBUG
c Sat Aug 9 07:26:21 PDT 2025 Linux cedar2.int.cedar.computecanada.ca 5.14.0-362.24.2.el9_3.x86_64 x86_64
c 
c --- [ limit ] --------------------------------------------------------------
c 
c setting time limit to 1600 seconds real time (due to '-t 1600')
c 
c --- [ parsing input ] ------------------------------------------------------
c 
c reading DIMACS file from './data/cnfs//picorv32-check-p20/picorv32-check-p20.96.cnf'
c opening file to read './data/cnfs//picorv32-check-p20/picorv32-check-p20.96.cnf'
c found 'p cnf 1860581 5492546' header
c parsed 5492546 clauses in 1.15 seconds process time
c 
c --- [ options ] ------------------------------------------------------------
c 
c   --compact=false                (different from default 'true')
c   --decompose=false              (different from default 'true')
c   --deduplicate=false            (different from default 'true')
c   --elim=false                   (different from default 'true')
c   --probe=false                  (different from default 'true')
c   --reduce=false                 (different from default 'true')
c   --subsume=false                (different from default 'true')
c   --ternary=false                (different from default 'true')
c   --transred=false               (different from default 'true')
c   --vivify=false                 (different from default 'true')
c 
c --- [ solving ] ------------------------------------------------------------
c 
c time measured in process time since initialization
c 
c  seconds   reductions  redundant   irredundant
c          MB    restarts       trail         variables
c           level   conflicts       glue            remaining
c 
c *  1.15 848  0 0   0    0    0  0% 0 5438802 1828983 98%
c {  1.54 871  0 0   0    0    0  0% 0 5438802 1828983 98%
c i  1.87 878 103 0   0   31   25 19% 2 5438802 1828982 98%
c i  1.87 878 101 0   0   32   25 18% 2 5438802 1828981 98%
c i  1.88 878 99 0   0   33   25 18% 2 5438802 1828980 98%
c i  1.88 878 97 0   0   34   25 17% 2 5438802 1828979 98%
c i  1.88 878 95 0   0   35   25 17% 2 5438802 1828978 98%
c i  1.88 878 94 0   0   36   25 17% 2 5438802 1828977 98%
c i  1.88 878 92 0   0   37   25 16% 2 5438802 1828976 98%
c i  1.89 878 91 0   0   38   25 16% 2 5438802 1828975 98%
c i  1.89 878 89 0   0   39   25 16% 2 5438802 1828974 98%
c i  1.89 878 88 0   0   40   25 15% 2 5438802 1828973 98%
c i  1.89 878 87 0   0   41   25 15% 2 5438802 1828972 98%
c i  1.90 878 86 0   0   42   25 15% 2 5438802 1828971 98%
c i  1.90 878 84 0   0   43   25 15% 2 5438802 1828970 98%
c i  1.90 878 83 0   0   44   25 14% 2 5438802 1828969 98%
c i  1.90 878 82 0   0   45   25 14% 1 5438802 1828968 98%
c i  1.90 878 81 0   0   46   25 14% 1 5438802 1828967 98%
c i  1.91 878 80 0   0   47   25 14% 1 5438802 1828966 98%
c i  1.91 878 79 0   0   48   25 14% 1 5438802 1828965 98%
c 
c  seconds   reductions  redundant   irredundant
c          MB    restarts       trail         variables
c           level   conflicts       glue            remaining
c 
c i  1.91 878 78 0   0   49   25 13% 1 5438802 1828964 98%
c i  1.91 878 78 0   0   50   25 13% 1 5438802 1828963 98%
c i  1.92 878 77 0   0   51   25 13% 1 5438802 1828962 98%
c i  1.92 878 76 0   0   52   25 13% 1 5438802 1828961 98%
c i  1.92 878 75 0   0   53   25 13% 1 5438802 1828960 98%
c i  1.93 878 75 0   0   54   25 13% 1 5438802 1828959 98%
c i  1.93 878 74 0   0   55   25 12% 1 5438802 1828958 98%
c i  1.93 878 73 0   0   56   25 12% 1 5438802 1828957 98%
c i  1.93 878 73 0   0   57   25 12% 1 5438802 1828956 98%
c i  1.94 878 72 0   0   58   25 12% 1 5438802 1828955 98%
c i  1.94 878 71 0   0   59   25 12% 1 5438802 1828954 98%
c i  1.94 878 71 0   0   60   25 12% 1 5438802 1828953 98%
c i  1.94 878 70 0   0   61   25 12% 1 5438802 1828952 98%
c i  1.95 878 70 0   0   62   25 12% 1 5438802 1828951 98%
c i  1.95 878 69 0   0   63   25 11% 1 5438802 1828950 98%
c i  1.95 878 69 0   0   64   25 11% 1 5438802 1828949 98%
c i  1.96 878 68 0   0   65   25 11% 1 5438802 1828948 98%
c i  1.96 878 68 0   0   66   25 11% 1 5438802 1828947 98%
c i  1.96 878 67 0   0   67   25 11% 1 5438802 1828946 98%
c i  1.97 878 67 0   0   68   25 11% 1 5438802 1828945 98%
c 
c  seconds   reductions  redundant   irredundant
c          MB    restarts       trail         variables
c           level   conflicts       glue            remaining
c 
c i  1.97 878 66 0   0   69   25 11% 1 5438802 1828944 98%
c i  1.97 878 66 0   0   70   25 11% 1 5438802 1828943 98%
c i  1.98 878 65 0   0   71   25 11% 1 5438802 1828942 98%
c i  1.98 878 65 0   0   72   25 11% 1 5438802 1828941 98%
... skipped 389 lines ...
c i 15.19 886 93 0 166 17264 14100  9% 9 5438802 1815665 98%
c i 15.24 886 93 0 169 17313 14148  9% 9 5438802 1815664 98%
c 
c  seconds   reductions    redundant   irredundant
c          MB    restarts         trail         variables
c           level    conflicts        glue            remaining
c 
c i 15.50 886 92 0 172 17758 14514  9% 9 5438802 1815663 98%
c i 15.55 886 92 0 174 17826 14565  9% 9 5438802 1815662 98%
c i 15.61 886 91 0 174 18018 14727  9% 9 5438802 1815661 98%
c i 15.67 886 91 0 174 18161 14849  9% 9 5438802 1815660 98%
c i 15.68 886 91 0 174 18175 14861  9% 9 5438802 1815659 98%
c i 15.90 886 88 0 174 18708 15305  9% 9 5438802 1815658 98%
c i 15.91 886 88 0 174 18720 15315  9% 9 5438802 1815657 98%
c i 15.97 886 87 0 174 18886 15448  9% 9 5438802 1815656 98%
c i 16.27 886 88 0 177 19408 15906  9% 8 5438802 1815655 98%
c i 16.53 887 85 0 186 20156 16580  9% 8 5438802 1815654 98%
c W 18.82 887 80 0 192 21149 17142  8% 8 5272797 1815654 98%
c i 19.59 887 77 0 208 22739 18568  8% 8 5272797 1815653 98%
c i 20.13 887 72 0 225 23944 19629  8% 7 5272797 1815652 98%
c i 20.18 887 72 0 226 23979 19659  8% 7 5272797 1815651 98%
c i 20.36 887 72 0 238 24169 19810  8% 7 5272797 1815650 98%
c i 20.42 887 71 0 238 24310 19935  8% 7 5272797 1815649 98%
c i 20.91 887 70 0 247 25086 20562  8% 7 5272797 1815648 98%
c i 20.92 887 70 0 247 25108 20579  8% 7 5272797 1815645 98%
c i 21.21 887 69 0 261 25337 20778  8% 7 5272797 1815644 98%
c i 21.24 887 69 0 261 25379 20814  8% 7 5272797 1815643 98%
c 
c  seconds   reductions    redundant   irredundant
c          MB    restarts         trail         variables
c           level    conflicts        glue            remaining
c 
c i 21.30 887 71 0 261 25569 20985  8% 7 5272797 1815642 98%
c i 21.56 887 70 0 263 25858 21239  8% 7 5272797 1815641 98%
c i 21.57 887 70 0 263 25862 21240  8% 7 5272797 1815640 98%
c i 21.62 887 70 0 263 25931 21277  8% 7 5272797 1815561 98%
c i 21.78 887 70 0 265 26099 21429  8% 7 5272797 1815560 98%
c i 21.78 887 70 0 265 26100 21429  8% 7 5272797 1814330 98%
c i 21.91 887 70 0 273 26285 21583  8% 7 5272797 1812763 97%
c i 21.92 887 69 0 273 26297 21594  8% 7 5272797 1812762 97%
c i 22.06 887 69 0 273 26470 21736  8% 7 5272797 1810013 97%
c i 22.07 887 69 0 273 26475 21738  8% 7 5272797 1808769 97%
c i 22.07 887 69 0 273 26483 21743  8% 7 5272797 1808624 97%
c i 22.09 887 69 0 273 26505 21753  8% 7 5272797 1806782 97%
c } 22.09 887 69 0 273 26507 21753  8% 7 5272797 1806298 97%
c 0 22.09 887 69 0 273 26507 21753  8% 7 5272797 1806298 97%
c 
c --- [ result ] -------------------------------------------------------------
c 
s UNSATISFIABLE
c 
c --- [ run-time profiling ] -------------------------------------------------
c 
c process time taken by individual solving procedures
c (percentage relative to process time for solving)
c 
c        20.94  100.00% search
c        11.30   53.97% unstable
c         7.39   35.28% stable
c         1.85    8.85% walk
c         1.15    5.47% parse
c         0.40    1.90% lucky
c         0.00    0.00% simplify
c   =================================
c        20.94   94.81% solve
c 
c last line shows process time for solving
c (percentage relative to total process time)
c 
c --- [ statistics ] ---------------------------------------------------------
c 
c chronological:             10446        39.41 %  of conflicts
c conflicts:                 26507      1265.70    per second
c decisions:                167816      8013.18    per second
c fixed:                     54085         2.91 %  of all variables
c learned:                   24404        92.07 %  per conflict
c learned_lits:             635654       100.00 %  learned literals
c minimized:                     0         0.00 %  learned literals
c shrunken:                  88814        13.97 %  learned literals
c minishrunken:              97946        15.41 %  learned literals
c otfs:                        360         1.36 %  of conflict
c propagations:          271559014        12.97 M  per second
c rephased:                      6      4417.83    interval
c restarts:                    273        97.10    interval
c stabilizing:                   2        37.73 %  of conflicts
c subsumed:                   1935         0.04 %  of all clauses
c strengthened:                358         0.01 %  of all clauses
c walked:                        1     26507.00    interval
c 
c seconds are measured in process time for solving
c 
c --- [ resources ] ----------------------------------------------------------
c 
c total process time since initialization:        22.09    seconds
c total real time since initialization:           22.20    seconds
c maximum resident set size of process:          926.16    MB
c 
c --- [ shutting down ] ------------------------------------------------------
c 
c exit 20
